objective value:                                10444
t_x_3                                               1 	(obj:35)
t_x_4                                               1 	(obj:9)
t_x_5                                               1 	(obj:15)
t_x_7                                               1 	(obj:0)
t_x_8                                               1 	(obj:24)
t_x_9                                               1 	(obj:29)
t_x_12                                              1 	(obj:33)
t_x_13                                              1 	(obj:25)
t_x_14                                              1 	(obj:56)
t_x_15                                              1 	(obj:11)
t_x_16                                              1 	(obj:14)
t_x_19                                              1 	(obj:5)
t_x_23                                              1 	(obj:31)
t_x_24                                              1 	(obj:17)
t_x_25                                              1 	(obj:29)
t_x_26                                              1 	(obj:25)
t_x_27                                              1 	(obj:19)
t_x_29                                              1 	(obj:38)
t_x_30                                              1 	(obj:0)
t_x_36                                              1 	(obj:69)
t_x_37                                              1 	(obj:16)
t_x_38                                              1 	(obj:46)
t_x_40                                              1 	(obj:6)
t_x_42                                              1 	(obj:13)
t_x_48                                              1 	(obj:0)
t_x_49                                              1 	(obj:67)
t_x_52                                              1 	(obj:6)
t_x_56                                              1 	(obj:7)
t_x_57                                              1 	(obj:4)
t_x_59                                              1 	(obj:12)
t_x_61                                              1 	(obj:22)
t_x_67                                              1 	(obj:9)
t_x_73                                              1 	(obj:24)
t_x_74                                              1 	(obj:23)
t_x_87                                              1 	(obj:28)
t_x_95                                              1 	(obj:61)
t_x_96                                              1 	(obj:16)
t_x_97                                              1 	(obj:41)
t_x_98                                              1 	(obj:26)
t_x_99                                              1 	(obj:60)
t_x_101                                             1 	(obj:17)
t_x_102                                             1 	(obj:16)
t_x_105                                             1 	(obj:0)
t_x_107                                             1 	(obj:4)
t_x_109                                             1 	(obj:6)
t_x_110                                             1 	(obj:42)
t_x_116                                             1 	(obj:48)
t_x_117                                             1 	(obj:37)
t_x_118                                             1 	(obj:28)
t_x_121                                             1 	(obj:15)
t_x_138                                             1 	(obj:35)
t_x_139                                             1 	(obj:7)
t_x_142                                             1 	(obj:7)
t_x_143                                             1 	(obj:4)
t_x_144                                             1 	(obj:2)
t_x_151                                             1 	(obj:12)
t_x_152                                             1 	(obj:20)
t_x_155                                             1 	(obj:41)
t_x_157                                             1 	(obj:18)
t_x_158                                             1 	(obj:20)
t_x_160                                             1 	(obj:10)
t_x_165                                             1 	(obj:15)
t_x_169                                             1 	(obj:61)
t_x_170                                             1 	(obj:8)
t_x_175                                             1 	(obj:38)
t_x_176                                             1 	(obj:18)
t_x_179                                             1 	(obj:36)
t_x_180                                             1 	(obj:19)
t_x_181                                             1 	(obj:17)
t_x_182                                             1 	(obj:16)
t_x_183                                             1 	(obj:37)
t_x_184                                             1 	(obj:7)
t_x_185                                             1 	(obj:26)
t_x_189                                             1 	(obj:32)
t_x_190                                             1 	(obj:45)
t_x_193                                             1 	(obj:0)
t_x_194                                             1 	(obj:1)
t_x_198                                             1 	(obj:57)
t_x_201                                             1 	(obj:32)
t_x_202                                             1 	(obj:27)
t_x_205                                             1 	(obj:45)
t_x_207                                             1 	(obj:8)
t_x_208                                             1 	(obj:15)
t_x_211                                             1 	(obj:38)
t_x_216                                             1 	(obj:10)
t_x_227                                             1 	(obj:42)
t_x_229                                             1 	(obj:12)
t_x_231                                             1 	(obj:17)
t_x_233                                             1 	(obj:7)
t_x_235                                             1 	(obj:16)
t_x_236                                             1 	(obj:10)
t_x_237                                             1 	(obj:20)
t_x_239                                             1 	(obj:35)
t_x_246                                             1 	(obj:11)
t_x_249                                             1 	(obj:50)
t_x_250                                             1 	(obj:20)
t_x_254                                             1 	(obj:8)
t_x_255                                             1 	(obj:14)
t_x_257                                             1 	(obj:21)
t_x_259                                             1 	(obj:1)
t_x_262                                             1 	(obj:5)
t_x_263                                             1 	(obj:10)
t_x_264                                             1 	(obj:30)
t_x_265                                             1 	(obj:29)
t_x_266                                             1 	(obj:36)
t_x_272                                             1 	(obj:3)
t_x_277                                             1 	(obj:15)
t_x_279                                             1 	(obj:10)
t_x_280                                             1 	(obj:35)
t_x_283                                             1 	(obj:23)
t_x_285                                             1 	(obj:31)
t_x_288                                             1 	(obj:9)
t_x_290                                             1 	(obj:9)
t_x_296                                             1 	(obj:12)
t_x_297                                             1 	(obj:33)
t_x_303                                             1 	(obj:8)
t_x_310                                             1 	(obj:45)
t_x_311                                             1 	(obj:25)
t_x_313                                             1 	(obj:13)
t_x_319                                             1 	(obj:25)
t_x_320                                             1 	(obj:9)
t_x_328                                             1 	(obj:22)
t_x_332                                             1 	(obj:3)
t_x_334                                             1 	(obj:11)
t_x_335                                             1 	(obj:24)
t_x_336                                             1 	(obj:3)
t_x_338                                             1 	(obj:21)
t_x_340                                             1 	(obj:45)
t_x_341                                             1 	(obj:14)
t_x_347                                             1 	(obj:0)
t_x_350                                             1 	(obj:9)
t_x_351                                             1 	(obj:10)
t_x_352                                             1 	(obj:7)
t_x_356                                             1 	(obj:12)
t_x_358                                             1 	(obj:2)
t_x_360                                             1 	(obj:5)
t_x_361                                             1 	(obj:3)
t_x_366                                             1 	(obj:14)
t_x_367                                             1 	(obj:41)
t_x_369                                             1 	(obj:29)
t_x_374                                             1 	(obj:10)
t_x_375                                             1 	(obj:8)
t_x_381                                             1 	(obj:21)
t_x_386                                             1 	(obj:33)
t_x_388                                             1 	(obj:4)
t_x_390                                             1 	(obj:24)
t_x_391                                             1 	(obj:21)
t_x_397                                             1 	(obj:0)
t_x_405                                             1 	(obj:10)
t_x_411                                             1 	(obj:77)
t_x_414                                             1 	(obj:0)
t_x_421                                             1 	(obj:0)
t_x_424                                             1 	(obj:6)
t_x_426                                             1 	(obj:21)
t_x_428                                             1 	(obj:23)
t_x_431                                             1 	(obj:18)
t_x_432                                             1 	(obj:6)
t_x_434                                             1 	(obj:18)
t_x_439                                             1 	(obj:24)
t_x_442                                             1 	(obj:29)
t_x_445                                             1 	(obj:9)
t_x_448                                             1 	(obj:38)
t_x_453                                             1 	(obj:31)
t_x_456                                             1 	(obj:10)
t_x_460                                             1 	(obj:11)
t_x_464                                             1 	(obj:58)
t_x_467                                             1 	(obj:5)
t_x_476                                             1 	(obj:24)
t_x_486                                             1 	(obj:16)
t_x_487                                             1 	(obj:23)
t_x_488                                             1 	(obj:7)
t_x_490                                             1 	(obj:2)
t_x_498                                             1 	(obj:20)
t_x_499                                             1 	(obj:6)
t_x_502                                             1 	(obj:5)
t_x_504                                             1 	(obj:4)
t_x_506                                             1 	(obj:17)
t_x_510                                             1 	(obj:3)
t_x_513                                             1 	(obj:6)
t_x_515                                             1 	(obj:17)
t_x_516                                             1 	(obj:24)
t_x_519                                             1 	(obj:3)
t_x_523                                             1 	(obj:12)
t_x_524                                             1 	(obj:21)
t_x_530                                             1 	(obj:11)
t_x_531                                             1 	(obj:27)
t_x_536                                             1 	(obj:24)
t_x_539                                             1 	(obj:8)
t_x_542                                             1 	(obj:21)
t_x_550                                             1 	(obj:10)
t_x_553                                             1 	(obj:3)
t_x_557                                             1 	(obj:22)
t_x_560                                             1 	(obj:16)
t_x_561                                             1 	(obj:14)
t_x_562                                             1 	(obj:11)
t_x_566                                             1 	(obj:21)
t_x_567                                             1 	(obj:6)
t_x_569                                             1 	(obj:28)
t_x_576                                             1 	(obj:13)
t_x_578                                             1 	(obj:22)
t_x_585                                             1 	(obj:25)
t_x_590                                             1 	(obj:7)
t_x_591                                             1 	(obj:12)
t_x_599                                             1 	(obj:15)
t_x_603                                             1 	(obj:58)
t_x_616                                             1 	(obj:19)
t_x_620                                             1 	(obj:2)
t_x_626                                             1 	(obj:18)
t_x_627                                             1 	(obj:5)
t_x_628                                             1 	(obj:11)
t_x_630                                             1 	(obj:9)
t_x_631                                             1 	(obj:47)
t_x_632                                             1 	(obj:50)
t_x_633                                             1 	(obj:26)
t_x_634                                             1 	(obj:0)
t_x_635                                             1 	(obj:1)
t_x_637                                             1 	(obj:11)
t_x_651                                             1 	(obj:19)
t_x_653                                             1 	(obj:3)
t_x_655                                             1 	(obj:28)
t_x_660                                             1 	(obj:25)
t_x_661                                             1 	(obj:8)
t_x_668                                             1 	(obj:28)
t_x_671                                             1 	(obj:4)
t_x_673                                             1 	(obj:12)
t_x_682                                             1 	(obj:8)
t_x_686                                             1 	(obj:17)
t_x_687                                             1 	(obj:2)
t_x_694                                             1 	(obj:12)
t_x_697                                             1 	(obj:15)
t_x_698                                             1 	(obj:6)
t_x_700                                             1 	(obj:48)
t_x_701                                             1 	(obj:15)
t_x_703                                             1 	(obj:4)
t_x_704                                             1 	(obj:11)
t_x_708                                             1 	(obj:16)
t_x_710                                             1 	(obj:0)
t_x_713                                             1 	(obj:24)
t_x_716                                             1 	(obj:2)
t_x_718                                             1 	(obj:17)
t_x_721                                             1 	(obj:23)
t_x_726                                             1 	(obj:1)
t_x_737                                             1 	(obj:52)
t_x_738                                             1 	(obj:46)
t_x_743                                             1 	(obj:25)
t_x_744                                             1 	(obj:3)
t_x_748                                             1 	(obj:12)
t_x_749                                             1 	(obj:9)
t_x_750                                             1 	(obj:26)
t_x_751                                             1 	(obj:17)
t_x_754                                             1 	(obj:13)
t_x_759                                             1 	(obj:20)
t_x_773                                             1 	(obj:41)
t_x_786                                             1 	(obj:5)
t_x_790                                             1 	(obj:24)
t_x_791                                             1 	(obj:64)
t_x_792                                             1 	(obj:16)
t_x_795                                             1 	(obj:30)
t_x_804                                             1 	(obj:45)
t_x_805                                             1 	(obj:14)
t_x_813                                             1 	(obj:0)
t_x_816                                             1 	(obj:52)
t_x_820                                             1 	(obj:1)
t_x_823                                             1 	(obj:4)
t_x_830                                             1 	(obj:24)
t_x_836                                             1 	(obj:4)
t_x_847                                             1 	(obj:34)
t_x_850                                             1 	(obj:5)
t_x_851                                             1 	(obj:16)
t_x_859                                             1 	(obj:14)
t_x_860                                             1 	(obj:9)
t_x_861                                             1 	(obj:0)
t_x_865                                             1 	(obj:15)
t_x_867                                             1 	(obj:3)
t_x_870                                             1 	(obj:17)
t_x_871                                             1 	(obj:0)
t_x_873                                             1 	(obj:0)
t_x_883                                             1 	(obj:16)
t_x_884                                             1 	(obj:8)
t_x_888                                             1 	(obj:17)
t_x_889                                             1 	(obj:3)
t_x_891                                             1 	(obj:12)
t_x_893                                             1 	(obj:5)
t_x_895                                             1 	(obj:6)
t_x_899                                             1 	(obj:25)
t_x_900                                             1 	(obj:22)
t_x_904                                             1 	(obj:4)
t_x_905                                             1 	(obj:6)
t_x_914                                             1 	(obj:14)
t_x_915                                             1 	(obj:4)
t_x_920                                             1 	(obj:4)
t_x_921                                             1 	(obj:2)
t_x_926                                             1 	(obj:18)
t_x_930                                             1 	(obj:8)
t_x_932                                             1 	(obj:19)
t_x_933                                             1 	(obj:33)
t_x_934                                             1 	(obj:56)
t_x_935                                             1 	(obj:19)
t_x_936                                             1 	(obj:4)
t_x_937                                             1 	(obj:8)
t_x_938                                             1 	(obj:8)
t_x_940                                             1 	(obj:0)
t_x_949                                             1 	(obj:15)
t_x_953                                             1 	(obj:30)
t_x_959                                             1 	(obj:16)
t_x_965                                             1 	(obj:1)
t_x_975                                             1 	(obj:13)
t_x_980                                             1 	(obj:20)
t_x_985                                             1 	(obj:32)
t_x_987                                             1 	(obj:3)
t_x_988                                             1 	(obj:22)
t_x_989                                             1 	(obj:43)
t_x_990                                             1 	(obj:17)
t_x_991                                             1 	(obj:1)
t_x_992                                             1 	(obj:10)
t_x_994                                             1 	(obj:11)
t_x_997                                             1 	(obj:5)
t_x_998                                             1 	(obj:26)
t_x_1000                                            1 	(obj:39)
t_x_1005                                            1 	(obj:8)
t_x_1009                                            1 	(obj:3)
t_x_1013                                            1 	(obj:26)
t_x_1021                                            1 	(obj:35)
t_x_1039                                            1 	(obj:10)
t_x_1042                                            1 	(obj:9)
t_x_1043                                            1 	(obj:26)
t_x_1046                                            1 	(obj:0)
t_x_1047                                            1 	(obj:22)
t_x_1050                                            1 	(obj:0)
t_x_1053                                            1 	(obj:19)
t_x_1060                                            1 	(obj:48)
t_x_1063                                            1 	(obj:4)
t_x_1073                                            1 	(obj:3)
t_x_1074                                            1 	(obj:14)
t_x_1083                                            1 	(obj:20)
t_x_1084                                            1 	(obj:5)
t_x_1087                                            1 	(obj:14)
t_x_1089                                            1 	(obj:26)
t_x_1094                                            1 	(obj:4)
t_x_1096                                            1 	(obj:23)
t_x_1097                                            1 	(obj:7)
t_x_1101                                            1 	(obj:15)
t_x_1103                                            1 	(obj:40)
t_x_1107                                            1 	(obj:6)
t_x_1108                                            1 	(obj:23)
t_x_1110                                            1 	(obj:20)
t_x_1113                                            1 	(obj:32)
t_x_1115                                            1 	(obj:27)
t_x_1122                                            1 	(obj:18)
t_x_1123                                            1 	(obj:33)
t_x_1124                                            1 	(obj:8)
t_x_1126                                            1 	(obj:11)
t_x_1127                                            1 	(obj:4)
t_x_1128                                            1 	(obj:1)
t_x_1130                                            1 	(obj:0)
t_x_1132                                            1 	(obj:4)
t_x_1142                                            1 	(obj:0)
t_x_1149                                            1 	(obj:25)
t_x_1150                                            1 	(obj:35)
t_x_1152                                            1 	(obj:11)
t_x_1161                                            1 	(obj:6)
t_x_1162                                            1 	(obj:18)
t_x_1165                                            1 	(obj:8)
t_x_1167                                            1 	(obj:6)
t_x_1171                                            1 	(obj:10)
t_x_1172                                            1 	(obj:61)
t_x_1176                                            1 	(obj:7)
t_x_1178                                            1 	(obj:15)
t_x_1183                                            1 	(obj:59)
t_x_1186                                            1 	(obj:32)
t_x_1189                                            1 	(obj:11)
t_x_1193                                            1 	(obj:25)
t_x_1205                                            1 	(obj:18)
t_x_1209                                            1 	(obj:27)
t_x_1218                                            1 	(obj:5)
t_x_1220                                            1 	(obj:10)
t_x_1221                                            1 	(obj:7)
t_x_1224                                            1 	(obj:19)
t_x_1227                                            1 	(obj:22)
t_x_1232                                            1 	(obj:12)
t_x_1236                                            1 	(obj:23)
t_x_1237                                            1 	(obj:34)
t_x_1240                                            1 	(obj:20)
t_x_1241                                            1 	(obj:15)
t_x_1244                                            1 	(obj:7)
t_x_1246                                            1 	(obj:16)
t_x_1258                                            1 	(obj:10)
t_x_1262                                            1 	(obj:9)
t_x_1268                                            1 	(obj:10)
t_x_1269                                            1 	(obj:27)
t_x_1272                                            1 	(obj:28)
t_x_1280                                            1 	(obj:16)
t_x_1281                                            1 	(obj:22)
t_x_1285                                            1 	(obj:0)
t_x_1294                                            1 	(obj:3)
t_x_1295                                            1 	(obj:11)
t_x_1296                                            1 	(obj:1)
t_x_1297                                            1 	(obj:21)
t_x_1298                                            1 	(obj:34)
t_x_1304                                            1 	(obj:32)
t_x_1307                                            1 	(obj:46)
t_x_1308                                            1 	(obj:1)
t_x_1309                                            1 	(obj:2)
t_x_1311                                            1 	(obj:28)
t_x_1313                                            1 	(obj:18)
t_x_1325                                            1 	(obj:11)
t_x_1327                                            1 	(obj:18)
t_x_1334                                            1 	(obj:35)
t_x_1336                                            1 	(obj:55)
t_x_1337                                            1 	(obj:17)
t_x_1343                                            1 	(obj:9)
t_x_1345                                            1 	(obj:31)
t_x_1348                                            1 	(obj:42)
t_x_1350                                            1 	(obj:7)
t_x_1351                                            1 	(obj:30)
t_x_1352                                            1 	(obj:9)
t_x_1357                                            1 	(obj:32)
t_x_1358                                            1 	(obj:28)
t_x_1360                                            1 	(obj:20)
t_x_1367                                            1 	(obj:1)
t_x_1371                                            1 	(obj:34)
t_x_1372                                            1 	(obj:1)
t_x_1377                                            1 	(obj:34)
t_x_1379                                            1 	(obj:28)
t_x_1381                                            1 	(obj:68)
t_x_1382                                            1 	(obj:42)
t_x_1387                                            1 	(obj:5)
t_x_1388                                            1 	(obj:6)
t_x_1389                                            1 	(obj:41)
t_x_1392                                            1 	(obj:5)
t_x_1401                                            1 	(obj:25)
t_x_1402                                            1 	(obj:13)
t_x_1403                                            1 	(obj:13)
t_x_1406                                            1 	(obj:0)
t_x_1412                                            1 	(obj:11)
t_x_1414                                            1 	(obj:18)
t_x_1417                                            1 	(obj:24)
t_x_1418                                            1 	(obj:2)
t_x_1421                                            1 	(obj:6)
t_x_1423                                            1 	(obj:32)
t_x_1432                                            1 	(obj:20)
t_x_1433                                            1 	(obj:14)
t_x_1436                                            1 	(obj:48)
t_x_1438                                            1 	(obj:12)
t_x_1439                                            1 	(obj:29)
t_x_1441                                            1 	(obj:4)
t_x_1442                                            1 	(obj:3)
t_x_1462                                            1 	(obj:1)
t_x_1469                                            1 	(obj:16)
t_x_1475                                            1 	(obj:34)
t_x_1479                                            1 	(obj:13)
t_x_1482                                            1 	(obj:3)
t_x_1484                                            1 	(obj:9)
t_x_1489                                            1 	(obj:0)
t_x_1490                                            1 	(obj:4)
t_x_1497                                            1 	(obj:10)
t_x_1498                                            1 	(obj:29)
t_x_1503                                            1 	(obj:2)
t_x_1505                                            1 	(obj:27)
t_x_1509                                            1 	(obj:17)
t_x_1511                                            1 	(obj:7)
t_x_1515                                            1 	(obj:2)
t_x_1516                                            1 	(obj:24)
t_x_1518                                            1 	(obj:3)
t_x_1522                                            1 	(obj:2)
t_x_1523                                            1 	(obj:45)
t_x_1528                                            1 	(obj:13)
t_x_1530                                            1 	(obj:5)
t_x_1532                                            1 	(obj:21)
t_x_1533                                            1 	(obj:16)
t_x_1534                                            1 	(obj:14)
t_x_1542                                            1 	(obj:12)
t_x_1548                                            1 	(obj:6)
t_x_1551                                            1 	(obj:31)
t_x_1552                                            1 	(obj:11)
t_x_1556                                            1 	(obj:0)
t_x_1560                                            1 	(obj:1)
t_x_1561                                            1 	(obj:20)
t_x_1566                                            1 	(obj:12)
t_x_1568                                            1 	(obj:1)
t_x_1569                                            1 	(obj:25)
t_x_1582                                            1 	(obj:35)
t_x_1586                                            1 	(obj:1)
t_x_1593                                            1 	(obj:32)
t_x_1596                                            1 	(obj:4)
t_x_1601                                            1 	(obj:12)
t_x_1603                                            1 	(obj:1)
t_x_1606                                            1 	(obj:11)
t_x_1607                                            1 	(obj:29)
t_x_1610                                            1 	(obj:48)
t_x_1612                                            1 	(obj:6)
t_x_1616                                            1 	(obj:16)
t_x_1618                                            1 	(obj:30)
t_x_1619                                            1 	(obj:17)
t_x_1620                                            1 	(obj:1)
t_x_1623                                            1 	(obj:21)
t_x_1631                                            1 	(obj:9)
t_x_1652                                            1 	(obj:23)
t_x_1655                                            1 	(obj:18)
t_x_1658                                            1 	(obj:35)
t_x_1660                                            1 	(obj:43)
t_x_1663                                            1 	(obj:15)
t_x_1667                                            1 	(obj:38)
t_x_1669                                            1 	(obj:0)
t_x_1672                                            1 	(obj:29)
t_x_1673                                            1 	(obj:39)
t_x_1681                                            1 	(obj:4)
t_x_1683                                            1 	(obj:11)
t_x_1685                                            1 	(obj:9)
t_x_1688                                            1 	(obj:4)
t_x_1690                                            1 	(obj:43)
t_x_1694                                            1 	(obj:3)
t_x_1696                                            1 	(obj:6)
t_x_1704                                            1 	(obj:13)
t_x_1713                                            1 	(obj:1)
t_x_1714                                            1 	(obj:1)
t_x_1715                                            1 	(obj:14)
t_x_1719                                            1 	(obj:13)
t_x_1721                                            1 	(obj:26)
t_x_1725                                            1 	(obj:22)
t_x_1731                                            1 	(obj:11)
t_x_1734                                            1 	(obj:0)
t_x_1736                                            1 	(obj:7)
t_x_1740                                            1 	(obj:5)
t_x_1742                                            1 	(obj:6)
t_x_1748                                            1 	(obj:31)
t_x_1751                                            1 	(obj:25)
t_x_1756                                            1 	(obj:23)
t_x_1759                                            1 	(obj:9)
t_x_1769                                            1 	(obj:10)
t_x_1771                                            1 	(obj:7)
t_x_1772                                            1 	(obj:30)
t_x_1773                                            1 	(obj:19)
t_x_1775                                            1 	(obj:8)
t_x_1788                                            1 	(obj:13)
t_x_1792                                            1 	(obj:31)
t_x_1808                                            1 	(obj:34)
t_x_1810                                            1 	(obj:19)
t_x_1818                                            1 	(obj:40)
t_x_1824                                            1 	(obj:0)
t_x_1832                                            1 	(obj:0)
t_x_1835                                            1 	(obj:15)
t_x_1843                                            1 	(obj:21)
t_x_1850                                            1 	(obj:25)
t_x_1852                                            1 	(obj:1)
t_x_1853                                            1 	(obj:0)
t_x_1854                                            1 	(obj:12)
t_x_1866                                            1 	(obj:31)
t_x_1873                                            1 	(obj:3)
t_x_1875                                            1 	(obj:28)
t_x_1877                                            1 	(obj:7)
t_x_1879                                            1 	(obj:16)
t_x_1880                                            1 	(obj:14)
t_x_1888                                            1 	(obj:27)
t_x_1892                                            1 	(obj:35)
t_x_1893                                            1 	(obj:31)
t_x_1895                                            1 	(obj:31)
t_x_1901                                            1 	(obj:18)
t_x_1909                                            1 	(obj:26)
t_x_1913                                            1 	(obj:12)
t_x_1914                                            1 	(obj:14)
t_x_1920                                            1 	(obj:25)
t_x_1926                                            1 	(obj:16)
t_x_1929                                            1 	(obj:30)
t_x_1939                                            1 	(obj:11)
t_x_1940                                            1 	(obj:8)
t_x_1941                                            1 	(obj:28)
t_x_1943                                            1 	(obj:24)
t_x_1944                                            1 	(obj:44)
t_x_1945                                            1 	(obj:27)
t_x_1955                                            1 	(obj:10)
t_x_1958                                            1 	(obj:14)
t_x_1961                                            1 	(obj:16)
t_x_1962                                            1 	(obj:41)
t_x_1963                                            1 	(obj:2)
t_x_1967                                            1 	(obj:17)
t_x_1970                                            1 	(obj:19)
t_x_1973                                            1 	(obj:33)
t_x_1974                                            1 	(obj:7)
t_x_1976                                            1 	(obj:16)
t_x_1982                                            1 	(obj:4)
t_x_1983                                            1 	(obj:31)
t_x_1998                                            1 	(obj:0)
